%chk=C:\Users\William\Documents\chem3DFile\e-donor\D1.chk
# hf/3-21g 

Title Card Required
<name>benzene<\name>
<s>symmetry<\s>
<l>2.431,-0.254,0.071<\l>
<r>-2.431,0.254,-0.071<\r>

0 1
C	0.793	1.047	-0.278
C	1.335	-0.139	0.039
C	0.542	-1.187	0.317
C	-0.793	-1.047	0.278
C	-1.335	0.139	-0.039
C	-0.542	1.187	-0.317
H	1.444	1.908	-0.506
H	2.431	-0.254	0.071
H	0.987	-2.161	0.577
H	-1.444	-1.908	0.506
H	-2.431	0.254	-0.071
H	-0.987	2.161	-0.577