%chk=C:\Users\William\Documents\chem3DFile\e-donor\D1.chk
# hf/3-21g 

Title Card Required
<name>3-methylthiophene<\name>
<s>symmetry<\s>
<l>-5.550,1.618,1.268<\l>
<r>-9.378,-0.211,0.556<\r>

0 1
C	-6.367	0.987	0.893
C	-6.214	0.030	-0.031
C	-7.406	-0.537	-0.250
C	-8.314	0.059	0.533
S	-7.748	1.122	1.372
C	-4.932	-0.351	-0.711
H	-5.550	1.618	1.268
H	-7.605	-1.354	-0.955
H	-9.378	-0.211	0.556
H	-4.078	0.269	-0.356
H	-4.691	-1.419	-0.507
H	-5.025	-0.213	-1.812