%chk=C:\Users\William\Documents\chem3DFile\e-donor\D1.chk
# hf/3-21g 

Title Card Required
<name>3,3'-dimethyl-2,2'-bithiophene<\name>
<s>symmetry<\s>
<l>-2.136,1.731,0.700<\l>
<r>-9.080,-1.752,-0.745<\r>

0 1
C	-2.820	0.142	-0.594
C	-2.951	1.099	0.324
S	-4.332	1.205	0.775
C	-4.966	0.150	-0.038
C	-4.014	-0.425	-0.813
C	-6.294	-0.118	0.054
C	-7.270	0.436	0.815
C	-8.446	-0.158	0.567
C	-8.284	-1.107	-0.352
S	-6.894	-1.183	-0.778
C	-4.130	-1.545	-1.819
C	-7.261	1.547	1.840
H	-1.875	-0.127	-1.085
H	-2.136	1.731	0.700
H	-9.403	0.094	1.045
H	-9.080	-1.752	-0.745
H	-3.147	-1.779	-2.286
H	-4.466	-2.491	-1.338
H	-4.804	-1.268	-2.661
H	-6.301	2.047	2.058
H	-7.960	2.352	1.517
H	-7.629	1.152	2.815