%chk=C:\Users\William\Documents\chem3DFile\e-donor\D1.chk
# hf/3-21g 

Title Card Required
<name>3,3''-dimethyl-2,2':5',2''-terthiophene<\name>
<s>symmetry<\s>
<l>-9.434,-2.310,-0.626<\l>
<r>0.051,2.759,1.994<\r>

0 1
C	-3.029	0.167	-0.238
C	-3.212	-0.627	-1.305
C	-4.460	-1.098	-1.362
C	-5.190	-0.645	-0.331
S	-4.318	0.211	0.483
C	-6.489	-0.917	-0.072
C	-1.892	0.812	0.128
S	-7.262	-1.798	-0.972
C	-8.546	-1.766	-0.278
C	-8.500	-1.002	0.815
C	-7.270	-0.490	0.944
C	-0.687	0.813	-0.485
C	0.182	1.576	0.192
C	-0.423	2.094	1.260
S	-1.814	1.665	1.339
C	-6.916	0.418	2.093
C	-0.251	0.108	-1.742
H	-2.483	-0.900	-2.074
H	-4.797	-1.766	-2.169
H	-9.434	-2.310	-0.626
H	-9.346	-0.828	1.495
H	1.231	1.756	-0.080
H	0.051	2.759	1.994
H	-6.610	1.425	1.730
H	-7.787	0.581	2.767
H	-6.113	-0.025	2.724
H	-0.834	0.462	-2.622
H	0.816	0.320	-1.981
H	-0.322	-0.996	-1.628