%chk=C:\Users\William\Documents\chem3DFile\e-donor\D1.chk
# hf/3-21g

Title Card Required
<name><\name>
<s>symmetry<\s>
<l>-10.895,1.749,-0.234<\l>
<r>4.135,-1.773,0.175<\r>

0 1
C	-4.484	0.693	-0.212
C	-4.565	-0.564	0.271
C	-3.448	-1.280	0.472
C	-2.274	-0.701	0.182
C	-2.192	0.556	-0.297
C	-3.309	1.272	-0.500
C	-5.722	1.184	-0.328
C	-6.596	0.255	0.076
C	-5.989	-1.041	0.541
C	-1.036	-1.196	0.293
C	-0.161	-0.266	-0.109
C	-0.767	1.036	-0.558
S	-6.329	2.445	-0.774
C	-7.704	1.993	-0.520
C	-7.826	0.751	-0.040
S	-0.430	-2.460	0.731
C	0.945	-2.010	0.474
C	1.068	-0.765	0.000
C	-8.925	2.518	-0.646
C	-9.807	1.589	-0.239
S	-9.200	0.322	0.208
C	2.165	-2.538	0.591
C	3.048	-1.610	0.186
S	2.442	-0.338	-0.251
C	-6.477	-2.149	-0.374
C	-6.126	-1.310	2.029
C	-0.622	1.332	-2.040
C	-0.282	2.127	0.379
C	-0.891	2.559	-2.521
C	-0.800	2.834	-3.831
C	-0.453	1.882	-4.713
C	-0.211	0.647	-4.244
C	-0.305	0.376	-2.932
C	-0.897	2.393	1.546
C	-0.435	3.337	2.380
C	0.674	4.037	2.087
C	1.309	3.758	0.937
C	0.843	2.813	0.106
C	-7.598	-2.833	-0.081
C	-8.064	-3.795	-0.892
C	-7.434	-4.095	-2.040
C	-6.330	-3.397	-2.352
C	-5.866	-2.435	-1.539
C	-5.851	-2.527	2.532
C	-5.934	-2.778	3.847
C	-6.283	-1.812	4.713
C	-6.526	-0.585	4.222
C	-6.441	-0.338	2.905
C	-7.957	-5.180	-2.950
C	-6.363	-2.094	6.195
C	-0.354	2.204	-6.185
C	1.188	5.100	3.028
H	-3.499	-2.309	0.858
H	-3.258	2.301	-0.885
H	-9.171	3.523	-1.014
H	-10.895	1.749	-0.234
H	2.410	-3.547	0.952
H	4.135	-1.773	0.175
H	-1.196	3.367	-1.836
H	-1.020	3.854	-4.188
H	0.058	-0.163	-4.942
H	-0.116	-0.659	-2.605
H	-1.798	1.834	1.847
H	-0.969	3.532	3.325
H	2.230	4.302	0.672
H	1.406	2.604	-0.819
H	-8.157	-2.608	0.842
H	-8.983	-4.338	-0.613
H	-5.798	-3.607	-3.295
H	-4.969	-1.879	-1.855
H	-5.547	-3.347	1.860
H	-5.708	-3.791	4.219
H	-6.793	0.236	4.907
H	-6.634	0.690	2.561
H	-8.412	-6.015	-2.370
H	-8.734	-4.762	-3.630
H	-7.150	-5.623	-3.575
H	-5.569	-2.805	6.516
H	-6.238	-1.171	6.804
H	-7.354	-2.540	6.441
H	0.268	3.114	-6.347
H	0.111	1.380	-6.771
H	-1.368	2.391	-6.604
H	0.350	5.658	3.506
H	1.800	4.630	3.832
H	1.821	5.851	2.505