%chk=C:\Users\William\Documents\chem3DFile\e-donor\D1.chk
# hf/3-21g

Title Card Required
<name>2-methylthieno[3,4-b]thiophene<\name>
<s>symmetry<\s>
<l>2.392,-2.056,-0.261<\l>
<r>2.404,2.238,-0.986<\r>

0 1
C	2.114	-1.000	-0.368
C	0.901	-0.491	-0.146
C	0.887	0.819	-0.363
C	2.110	1.208	-0.738
S	3.042	0.066	-0.783
C	-0.307	-0.908	0.230
C	-1.107	0.174	0.251
S	-0.422	1.430	-0.134
C	-2.565	0.128	0.629
H	2.392	-2.056	-0.261
H	2.404	2.238	-0.986
H	-0.587	-1.940	0.475
H	-2.885	-0.908	0.884
H	-2.769	0.765	1.519
H	-3.208	0.474	-0.212