%chk=C:\Users\William\Documents\chem3DFile\e-donor\D1.chk
# hf/3-21g

Title Card Required
<name>4,8-di-p-tolylbenzo[1,2-b:4,5-b']dithiophene<\name>
<s>symmetry<\s>
<l>-4.315,0.264,-0.394<\l>
<r>4.319,-0.264,-0.256<\r>

0 1
C	1.104	-0.702	-0.088
C	1.158	0.646	-0.093
C	0.043	1.411	-0.080
C	-1.107	0.702	-0.122
C	-1.161	-0.646	-0.132
C	-0.047	-1.411	-0.086
C	2.358	-1.171	-0.195
C	3.229	-0.160	-0.171
S	2.552	1.122	-0.024
C	-2.357	1.171	-0.267
C	-3.228	0.160	-0.274
S	-2.557	-1.123	-0.109
C	0.039	2.768	-0.029
C	-0.045	-2.768	-0.038
C	-0.891	-3.543	-0.748
C	-0.876	-4.884	-0.677
C	-0.011	-5.525	0.125
C	0.832	-4.773	0.849
C	0.811	-3.434	0.766
C	-0.842	3.431	0.748
C	-0.868	4.771	0.836
C	-0.002	5.524	0.141
C	0.889	4.885	-0.633
C	0.908	3.545	-0.709
C	-0.010	7.032	0.220
C	0.023	-7.031	0.223
H	2.685	-2.211	-0.322
H	4.319	-0.264	-0.256
H	-2.680	2.212	-0.402
H	-4.315	0.264	-0.394
H	-1.596	-3.112	-1.477
H	-1.575	-5.465	-1.301
H	1.539	-5.265	1.538
H	1.492	-2.895	1.446
H	-1.544	2.890	1.405
H	-1.599	5.254	1.505
H	1.605	5.474	-1.230
H	1.637	3.117	-1.416
H	-0.778	7.419	0.927
H	0.981	7.406	0.564
H	-0.224	7.469	-0.782
H	-0.667	-7.522	-0.499
H	1.049	-7.411	0.014
H	-0.273	-7.355	1.247