%chk=C:\Users\William\Documents\chem3DFile\e-donor\D1.chk
# hf/3-21g 

Title Card Required
<name>5-methylbenzo[1,2-b:3,4-b':6,5-b'']trithiophene<\name>
<s>symmetry<\s>
<l>-4.606,-1.586,0.416<\l>
<r>-0.213,4.525,-1.206<\r>

0 1
C	-0.001	1.422	-0.379
C	0.575	0.254	-0.067
C	-0.177	-0.818	0.218
C	-1.513	-0.701	0.184
C	-2.104	0.469	-0.128
C	-1.340	1.543	-0.413
C	-2.450	-1.625	0.429
C	-3.652	-1.059	0.276
S	-3.573	0.355	-0.100
S	-1.738	2.914	-0.779
C	-0.392	3.477	-0.927
C	0.577	2.586	-0.688
C	1.866	-0.077	0.024
C	1.956	-1.371	0.368
S	0.634	-1.999	0.534
C	3.253	-2.109	0.567
H	-2.280	-2.674	0.709
H	-4.606	-1.586	0.416
H	-0.213	4.525	-1.206
H	1.655	2.790	-0.741
H	2.718	0.592	-0.154
H	4.129	-1.444	0.391
H	3.337	-2.499	1.608
H	3.340	-2.965	-0.141