%chk=C:\Users\William\Documents\chem3DFile\e-donor\D1.chk
# hf/3-21g 

Title Card Required
<name>4,9-dimethoxynaphtho[1,2-b:5,6-b']dithiophene<\name>
<s>symmetry<\s>
<l>-4.939,1.252,0.044<\l>
<r>4.939,-1.253,-0.041<\r>

0 1
C	-1.753	1.659	0.025
C	-1.749	0.320	0.014
C	-0.579	-0.366	0.000
C	0.580	0.365	-0.001
C	0.573	1.731	0.010
C	-0.618	2.356	0.023
C	-0.572	-1.733	-0.011
C	0.619	-2.357	-0.024
C	1.753	-1.660	-0.025
C	1.750	-0.321	-0.014
C	-2.986	2.173	0.038
C	-3.845	1.152	0.035
S	-3.154	-0.136	0.020
C	2.987	-2.175	-0.036
C	3.846	-1.153	-0.033
S	3.155	0.135	-0.019
O	1.742	2.462	0.008
C	1.710	3.871	0.025
O	-1.741	-2.464	-0.010
C	-1.710	-3.873	-0.028
H	-0.712	3.452	0.033
H	0.713	-3.453	-0.033
H	-3.256	3.238	0.048
H	-4.939	1.252	0.044
H	3.257	-3.239	-0.046
H	4.939	-1.253	-0.041
H	2.764	4.230	0.022
H	1.216	4.263	-0.892
H	1.229	4.241	0.958
H	-2.764	-4.231	-0.026
H	-1.228	-4.242	-0.961
H	-1.217	-4.265	0.889
