%chk=C:\Users\William\Documents\chem3DFile\e-donor\D1.chk
# hf/3-21g

Title Card Required
<name>5-methyl-4H-thieno[3,4-c]pyrrole-4,6(5H)-dione<\name>
<s>symmetry<\s>
<l>-8.485,-2.254,0.488<\l>
<r>-8.650,1.877,-0.977<\r>

0 1
C	-8.237	-1.234	0.173
C	-7.022	-0.682	0.175
C	-7.073	0.565	-0.267
C	-8.322	0.906	-0.586
S	-9.213	-0.244	-0.328
C	-5.773	-1.065	0.509
N	-5.089	0.110	0.209
C	-5.862	1.158	-0.280
O	-5.320	-2.096	0.941
O	-5.483	2.257	-0.601
C	-3.651	0.250	0.391
H	-8.485	-2.254	0.488
H	-8.650	1.877	-0.977
H	-3.178	-0.679	0.779
H	-3.166	0.495	-0.581
H	-3.437	1.067	1.116
