%chk=C:\Users\William\Documents\chem3DFile\e-donor\D1.chk
# hf/3-21g 

Title Card Required
<name>2,5-dimethyl-2,5-dihydropyrrolo[3,4-c]pyrrole-1,4-dione<\name>
<s>symmetry<\s>
<l>-3.941,-0.477,-0.034<\l>
<r>-9.255,0.465,0.087<\r>

0 1
C	-6.930	-1.622	0.282
C	-7.178	-0.309	0.100
C	-6.017	0.305	-0.048
C	-5.027	-0.585	0.036
N	-5.658	-1.682	0.229
C	-8.170	0.580	0.017
N	-7.538	1.676	-0.176
C	-6.267	1.617	-0.229
O	-7.727	-2.514	0.453
O	-5.483	2.520	-0.401
C	-4.916	-2.943	0.379
C	-8.237	2.960	-0.332
H	-3.941	-0.477	-0.034
H	-9.255	0.465	0.087
H	-5.573	-3.826	0.540
H	-4.311	-3.144	-0.535
H	-4.226	-2.881	1.252
H	-9.343	2.846	-0.275
H	-7.934	3.669	0.473
H	-8.001	3.415	-1.321
