%chk=C:\Users\William\Documents\chem3DFile\e-donor\D1.chk
# hf/3-21g

Title Card Required
<name>2,3-dimethyl-4a,8a-dihydroquinoxaline<\name>
<s>symmetry<\s>
<l>-7.834,-2.419,0.587<\l>
<r>-3.131,-0.859,0.753<\r>

0 1
C	-7.571	1.026	0.121
N	-7.714	0.198	1.066
C	-6.582	-0.710	1.328
C	-5.236	-0.102	0.934
N	-5.315	0.700	-0.303
C	-6.432	1.232	-0.567
C	-6.801	-2.034	0.642
C	-5.786	-2.809	0.233
C	-4.509	-2.412	0.340
C	-4.190	-1.165	0.716
C	-8.842	1.781	-0.207
C	-6.378	2.177	-1.747
H	-6.592	-0.921	2.426
H	-4.893	0.595	1.738
H	-7.834	-2.419	0.587
H	-6.006	-3.816	-0.161
H	-3.701	-3.117	0.080
H	-3.131	-0.859	0.753
H	-9.697	1.497	0.446
H	-8.689	2.877	-0.080
H	-9.159	1.582	-1.256
H	-5.366	2.242	-2.207
H	-7.074	1.841	-2.549
H	-6.657	3.210	-1.439





