%chk=C:\Users\William\Documents\chem3DFile\e-donor\D1.chk
# hf/3-21g 

Title Card Required
<name>2-(3-methyl-5-methylene-4-oxothiazolidin-2-ylidene)malononitrile<\name>
<l>-2.310,0.094,2.045<\l>

0 1
C	-6.268	-0.018	0.299
N	-5.280	-0.319	-0.444
C	-4.142	-0.274	0.106
C	-4.347	0.107	1.396
S	-5.776	0.313	1.647
C	-7.593	0.034	0.038
C	-3.367	0.266	2.298
O	-3.072	-0.521	-0.411
C	-5.407	-0.703	-1.863
C	-8.124	-0.246	-1.138
N	-8.586	-0.494	-2.172
C	-8.494	0.374	0.948
N	-9.310	0.668	1.719
H	-2.310	0.094	2.045
H	-3.568	0.576	3.336
H	-5.859	0.126	-2.453
H	-4.442	-0.930	-2.365
H	-6.019	-1.628	-1.964
